c ind 7 8 9 10 11 12 13 14 15 16 17 18 19 20 21 22 23 24 25 26 27 28 29 30 31 32 33 34 35 36 37 38 0
p cnf 244 569
-1 -3 0
2 -3 0
1 -2 3 0
-1 -4 0
-2 -4 0
1 2 4 0
-1 -6 0
5 -6 0
1 -5 6 0
-9 -39 0
-8 9 -39 0
8 9 39 0
-10 -40 0
10 39 -40 0
10 -39 40 0
-11 -41 0
11 40 -41 0
11 -40 41 0
-12 -42 0
12 41 -42 0
12 -41 42 0
-13 -43 0
13 42 -43 0
13 -42 43 0
-14 -44 0
14 43 -44 0
14 -43 44 0
-15 -45 0
15 44 -45 0
15 -44 45 0
-16 -46 0
16 45 -46 0
16 -45 46 0
-17 -47 0
17 46 -47 0
17 -46 47 0
-18 -48 0
18 47 -48 0
18 -47 48 0
-19 -49 0
19 48 -49 0
19 -48 49 0
-20 -50 0
20 49 -50 0
20 -49 50 0
-21 -51 0
21 50 -51 0
21 -50 51 0
-22 -52 0
22 51 -52 0
22 -51 52 0
-23 -53 0
23 52 -53 0
23 -52 53 0
-24 -54 0
24 53 -54 0
24 -53 54 0
-25 -55 0
25 54 -55 0
25 -54 55 0
-26 -56 0
26 55 -56 0
26 -55 56 0
-27 -57 0
27 56 -57 0
27 -56 57 0
-28 -58 0
28 57 -58 0
28 -57 58 0
-29 -59 0
29 58 -59 0
29 -58 59 0
-30 -60 0
30 59 -60 0
30 -59 60 0
-31 -61 0
31 60 -61 0
31 -60 61 0
-32 -62 0
32 61 -62 0
32 -61 62 0
-33 -63 0
33 62 -63 0
33 -62 63 0
-34 -64 0
34 63 -64 0
34 -63 64 0
-35 -65 0
35 64 -65 0
35 -64 65 0
-36 -66 0
36 65 -66 0
36 -65 66 0
-37 66 -67 0
-37 -66 67 0
37 67 0
-38 67 -68 0
-38 -67 68 0
38 68 0
-38 -68 -69 0
38 68 -69 0
-38 68 69 0
38 -68 69 0
7 -70 0
-8 -70 0
-9 -70 0
-10 -70 0
-11 -70 0
-12 -70 0
-13 -70 0
-14 -70 0
-15 -70 0
-16 -70 0
-17 -70 0
-18 -70 0
-19 -70 0
-20 -70 0
-21 -70 0
-22 -70 0
-23 -70 0
-24 -70 0
-25 -70 0
-26 -70 0
-27 -70 0
-28 -70 0
-29 -70 0
-30 -70 0
-31 -70 0
-32 -70 0
-33 -70 0
-34 -70 0
-35 -70 0
-36 -70 0
37 -70 0
38 -70 0
-7 8 9 10 11 12 13 14 15 16 17 18 19 20 21 22 23 24 25 26 27 28 29 30 31 32 33 34 35 36 -37 -38 70 0
-69 71 0
-70 71 0
69 70 -71 0
-1 71 -72 0
1 -71 -72 0
-1 -71 72 0
1 71 72 0
-72 0
-8 -73 0
-7 8 -73 0
7 8 73 0
-9 -74 0
9 73 -74 0
9 -73 74 0
-10 -75 0
10 74 -75 0
10 -74 75 0
-11 -76 0
11 75 -76 0
11 -75 76 0
-12 -77 0
12 76 -77 0
12 -76 77 0
-13 -78 0
13 77 -78 0
13 -77 78 0
-14 -79 0
14 78 -79 0
14 -78 79 0
-15 -80 0
15 79 -80 0
15 -79 80 0
-16 -81 0
16 80 -81 0
16 -80 81 0
-17 -82 0
17 81 -82 0
17 -81 82 0
-18 -83 0
18 82 -83 0
18 -82 83 0
-19 -84 0
19 83 -84 0
19 -83 84 0
-20 -85 0
20 84 -85 0
20 -84 85 0
-21 -86 0
21 85 -86 0
21 -85 86 0
-22 -87 0
22 86 -87 0
22 -86 87 0
-23 -88 0
23 87 -88 0
23 -87 88 0
-24 -89 0
24 88 -89 0
24 -88 89 0
-25 -90 0
25 89 -90 0
25 -89 90 0
-26 -91 0
26 90 -91 0
26 -90 91 0
-27 -92 0
27 91 -92 0
27 -91 92 0
-28 -93 0
28 92 -93 0
28 -92 93 0
-29 -94 0
29 93 -94 0
29 -93 94 0
-30 -95 0
30 94 -95 0
30 -94 95 0
-31 -96 0
31 95 -96 0
31 -95 96 0
-32 -97 0
32 96 -97 0
32 -96 97 0
-33 -98 0
33 97 -98 0
33 -97 98 0
-34 -99 0
34 98 -99 0
34 -98 99 0
-35 -100 0
35 99 -100 0
35 -99 100 0
-36 -101 0
36 100 -101 0
36 -100 101 0
-37 -102 0
37 101 -102 0
37 -101 102 0
-38 -103 0
38 102 -103 0
38 -102 103 0
38 -103 -104 0
-38 103 -104 0
38 103 104 0
-38 -103 104 0
-7 -105 0
-8 -105 0
-9 -105 0
-10 -105 0
-11 -105 0
-12 -105 0
-13 -105 0
-14 -105 0
-15 -105 0
-16 -105 0
-17 -105 0
-18 -105 0
-19 -105 0
-20 -105 0
-21 -105 0
-22 -105 0
-23 -105 0
-24 -105 0
-25 -105 0
-26 -105 0
-27 -105 0
-28 -105 0
-29 -105 0
-30 -105 0
-31 -105 0
-32 -105 0
-33 -105 0
-34 -105 0
-35 -105 0
-36 -105 0
-37 -105 0
-38 -105 0
7 8 9 10 11 12 13 14 15 16 17 18 19 20 21 22 23 24 25 26 27 28 29 30 31 32 33 34 35 36 37 38 105 0
-104 106 0
-105 106 0
104 105 -106 0
-2 106 -107 0
2 -106 -107 0
-2 -106 107 0
2 106 107 0
-107 0
-38 108 0
-37 108 0
37 38 -108 0
-37 -38 -109 0
37 38 -109 0
37 -38 109 0
-37 38 109 0
38 -110 0
37 -110 0
-37 -38 110 0
-37 -38 -111 0
37 38 -111 0
37 -38 111 0
-37 38 111 0
2 -111 112 0
2 111 -112 0
-2 109 112 0
-2 -109 -112 0
-8 -113 0
-7 8 -113 0
7 8 113 0
-9 -114 0
9 113 -114 0
9 -113 114 0
-10 -115 0
10 114 -115 0
10 -114 115 0
-11 -116 0
11 115 -116 0
11 -115 116 0
-12 -117 0
12 116 -117 0
12 -116 117 0
-13 -118 0
13 117 -118 0
13 -117 118 0
-14 -119 0
14 118 -119 0
14 -118 119 0
-15 -120 0
15 119 -120 0
15 -119 120 0
-16 -121 0
16 120 -121 0
16 -120 121 0
-17 -122 0
17 121 -122 0
17 -121 122 0
-18 -123 0
18 122 -123 0
18 -122 123 0
-19 -124 0
19 123 -124 0
19 -123 124 0
-20 -125 0
20 124 -125 0
20 -124 125 0
-21 -126 0
21 125 -126 0
21 -125 126 0
-22 -127 0
22 126 -127 0
22 -126 127 0
-23 -128 0
23 127 -128 0
23 -127 128 0
-24 -129 0
24 128 -129 0
24 -128 129 0
-25 -130 0
25 129 -130 0
25 -129 130 0
-26 -131 0
26 130 -131 0
26 -130 131 0
-27 -132 0
27 131 -132 0
27 -131 132 0
-28 -133 0
28 132 -133 0
28 -132 133 0
-29 -134 0
29 133 -134 0
29 -133 134 0
-30 -135 0
30 134 -135 0
30 -134 135 0
-31 -136 0
31 135 -136 0
31 -135 136 0
-32 -137 0
32 136 -137 0
32 -136 137 0
-33 -138 0
33 137 -138 0
33 -137 138 0
-34 -139 0
34 138 -139 0
34 -138 139 0
-35 -140 0
35 139 -140 0
35 -139 140 0
-36 -141 0
36 140 -141 0
36 -140 141 0
37 -142 0
-37 141 -142 0
-37 -141 142 0
-112 -143 0
112 142 -143 0
112 -142 143 0
112 -143 -144 0
-112 143 -144 0
112 143 144 0
-112 -143 144 0
-7 -145 0
-8 -145 0
-9 -145 0
-10 -145 0
-11 -145 0
-12 -145 0
-13 -145 0
-14 -145 0
-15 -145 0
-16 -145 0
-17 -145 0
-18 -145 0
-19 -145 0
-20 -145 0
-21 -145 0
-22 -145 0
-23 -145 0
-24 -145 0
-25 -145 0
-26 -145 0
-27 -145 0
-28 -145 0
-29 -145 0
-30 -145 0
-31 -145 0
-32 -145 0
-33 -145 0
-34 -145 0
-35 -145 0
-36 -145 0
37 -145 0
-112 -145 0
7 8 9 10 11 12 13 14 15 16 17 18 19 20 21 22 23 24 25 26 27 28 29 30 31 32 33 34 35 36 -37 112 145 0
-144 146 0
-145 146 0
144 145 -146 0
-5 -146 -147 0
5 146 -147 0
-5 146 147 0
5 -146 147 0
-147 0
-1 -148 0
1 148 0
148 0
7 -149 0
-7 149 0
8 -150 0
-8 150 0
9 -151 0
-9 151 0
10 -152 0
-10 152 0
11 -153 0
-11 153 0
12 -154 0
-12 154 0
13 -155 0
-13 155 0
14 -156 0
-14 156 0
15 -157 0
-15 157 0
16 -158 0
-16 158 0
17 -159 0
-17 159 0
18 -160 0
-18 160 0
19 -161 0
-19 161 0
20 -162 0
-20 162 0
21 -163 0
-21 163 0
22 -164 0
-22 164 0
23 -165 0
-23 165 0
24 -166 0
-24 166 0
25 -167 0
-25 167 0
26 -168 0
-26 168 0
27 -169 0
-27 169 0
28 -170 0
-28 170 0
29 -171 0
-29 171 0
30 -172 0
-30 172 0
31 -173 0
-31 173 0
32 -174 0
-32 174 0
33 -175 0
-33 175 0
34 -176 0
-34 176 0
35 -177 0
-35 177 0
36 -178 0
-36 178 0
37 -179 0
-37 179 0
38 -180 0
-38 180 0
7 -181 0
-7 181 0
8 -182 0
-8 182 0
9 -183 0
-9 183 0
10 -184 0
-10 184 0
11 -185 0
-11 185 0
12 -186 0
-12 186 0
13 -187 0
-13 187 0
14 -188 0
-14 188 0
15 -189 0
-15 189 0
16 -190 0
-16 190 0
17 -191 0
-17 191 0
18 -192 0
-18 192 0
19 -193 0
-19 193 0
20 -194 0
-20 194 0
21 -195 0
-21 195 0
22 -196 0
-22 196 0
23 -197 0
-23 197 0
24 -198 0
-24 198 0
25 -199 0
-25 199 0
26 -200 0
-26 200 0
27 -201 0
-27 201 0
28 -202 0
-28 202 0
29 -203 0
-29 203 0
30 -204 0
-30 204 0
31 -205 0
-31 205 0
32 -206 0
-32 206 0
33 -207 0
-33 207 0
34 -208 0
-34 208 0
35 -209 0
-35 209 0
36 -210 0
-36 210 0
37 -211 0
-37 211 0
38 -212 0
-38 212 0
c goto_symex::\guard#1 1
c goto_symex::\guard#2 2
c goto_symex::\guard#3 5
c __counterSharp_assumeMiss#4 1 FALSE FALSE FALSE FALSE FALSE FALSE FALSE
c symex::io::1 213 214 215 216 217 218 219 220 221 222 223 224 225 226 227 228 229 230 231 232 233 234 235 236 237 238 239 240 241 242 243 244
c testfun::x1!0@1#5 7 8 9 10 11 12 13 14 15 16 17 18 19 20 21 22 23 24 25 26 27 28 29 30 31 32 33 34 35 36 -37 112
c symex::io::0 181 182 183 184 185 186 187 188 189 190 191 192 193 194 195 196 197 198 199 200 201 202 203 204 205 206 207 208 209 210 211 212
c testfun::x1!0@1#4 7 8 9 10 11 12 13 14 15 16 17 18 19 20 21 22 23 24 25 26 27 28 29 30 31 32 33 34 35 36 -37 111
c symex::args::0 149 150 151 152 153 154 155 156 157 158 159 160 161 162 163 164 165 166 167 168 169 170 171 172 173 174 175 176 177 178 179 180
c testfun::x1!0@1#3 7 8 9 10 11 12 13 14 15 16 17 18 19 20 21 22 23 24 25 26 27 28 29 30 31 32 33 34 35 36 37 38
c testfun::x1!0@1#1 7 8 9 10 11 12 13 14 15 16 17 18 19 20 21 22 23 24 25 26 27 28 29 30 31 32 33 34 35 36 37 38
c return'!0#1 213 214 215 216 217 218 219 220 221 222 223 224 225 226 227 228 229 230 231 232 233 234 235 236 237 238 239 240 241 242 243 244
c testfun::x1!0@1#2 7 8 9 10 11 12 13 14 15 16 17 18 19 20 21 22 23 24 25 26 27 28 29 30 31 32 33 34 35 36 -37 -109
c __CPROVER__start::x1!0#2 7 8 9 10 11 12 13 14 15 16 17 18 19 20 21 22 23 24 25 26 27 28 29 30 31 32 33 34 35 36 37 38
c symex::nondet0 7 8 9 10 11 12 13 14 15 16 17 18 19 20 21 22 23 24 25 26 27 28 29 30 31 32 33 34 35 36 37 38

